1 -1 0
1 -2 0
1 -3 0
1 -4 0
1 -5 0
1 -6 0
1 -7 0
1 -8 0
1 -9 0
1 -10 0
1 -11 0
1 -12 0
1 -13 0
1 -14 0
1 -15 0
1 -16 0
1 -17 0
1 -18 0
1 -19 0
1 -20 0
h 21 22 23 24 0
h -21 25 0
h -22 25 0
h -21 -22 26 0
h -23 27 0
h -24 27 0
h -23 -24 28 0
h -25 29 0
h -27 29 0
h -25 -27 30 0
h -26 31 0
h -28 31 0
h -26 -28 32 0
h -30 33 0
h -31 33 0
h -30 -31 34 0
h -33 0
h 35 36 37 0
h -38 0
h -35 39 0
h -36 39 0
h -35 -36 40 0
h -37 41 0
h -38 41 0
h -37 -38 42 0
h -39 43 0
h -41 43 0
h -39 -41 44 0
h -40 45 0
h -42 45 0
h -40 -42 46 0
h -44 47 0
h -45 47 0
h -44 -45 48 0
h -47 0
h 49 50 51 0
h -52 0
h -49 53 0
h -50 53 0
h -49 -50 54 0
h -51 55 0
h -52 55 0
h -51 -52 56 0
h -53 57 0
h -55 57 0
h -53 -55 58 0
h -54 59 0
h -56 59 0
h -54 -56 60 0
h -58 61 0
h -59 61 0
h -58 -59 62 0
h -61 0
h 63 64 65 66 0
h -63 67 0
h -64 67 0
h -63 -64 68 0
h -65 69 0
h -66 69 0
h -65 -66 70 0
h -67 71 0
h -69 71 0
h -67 -69 72 0
h -68 73 0
h -70 73 0
h -68 -70 74 0
h -72 75 0
h -73 75 0
h -72 -73 76 0
h -75 0
h 77 78 79 80 0
h -77 81 0
h -78 81 0
h -77 -78 82 0
h -79 83 0
h -80 83 0
h -79 -80 84 0
h -81 85 0
h -83 85 0
h -81 -83 86 0
h -82 87 0
h -84 87 0
h -82 -84 88 0
h -86 89 0
h -87 89 0
h -86 -87 90 0
h -89 0
h 91 92 93 94 0
h -91 95 0
h -92 95 0
h -91 -92 96 0
h -93 97 0
h -94 97 0
h -93 -94 98 0
h -95 99 0
h -97 99 0
h -95 -97 100 0
h -96 101 0
h -98 101 0
h -96 -98 102 0
h -100 103 0
h -101 103 0
h -100 -101 104 0
h -103 0
h 105 106 107 108 109 0
h -110 0
h -105 111 0
h -106 111 0
h -105 -106 112 0
h -107 113 0
h -108 113 0
h -107 -108 114 0
h -109 115 0
h -110 115 0
h -109 -110 116 0
h -113 117 0
h -115 117 0
h -113 -115 118 0
h -114 119 0
h -116 119 0
h -114 -116 120 0
h -118 121 0
h -119 121 0
h -118 -119 122 0
h -111 123 0
h -117 123 0
h -111 -117 124 0
h -112 125 0
h -121 125 0
h -112 -121 126 0
h -124 127 0
h -125 127 0
h -124 -125 128 0
h -127 0
h 129 130 131 132 0
h -129 133 0
h -130 133 0
h -129 -130 134 0
h -131 135 0
h -132 135 0
h -131 -132 136 0
h -133 137 0
h -135 137 0
h -133 -135 138 0
h -134 139 0
h -136 139 0
h -134 -136 140 0
h -138 141 0
h -139 141 0
h -138 -139 142 0
h -141 0
h 143 144 145 0
h -146 0
h -143 147 0
h -144 147 0
h -143 -144 148 0
h -145 149 0
h -146 149 0
h -145 -146 150 0
h -147 151 0
h -149 151 0
h -147 -149 152 0
h -148 153 0
h -150 153 0
h -148 -150 154 0
h -152 155 0
h -153 155 0
h -152 -153 156 0
h -155 0
h 157 158 159 0
h -160 0
h -157 161 0
h -158 161 0
h -157 -158 162 0
h -159 163 0
h -160 163 0
h -159 -160 164 0
h -161 165 0
h -163 165 0
h -161 -163 166 0
h -162 167 0
h -164 167 0
h -162 -164 168 0
h -166 169 0
h -167 169 0
h -166 -167 170 0
h -169 0
h 171 0
h -171 172 0
h -20 172 0
h -171 -20 173 0
h -19 172 0
h -171 -19 173 0
h -20 -19 173 0
h -171 -20 -19 174 0
h -17 175 0
h -16 175 0
h -17 -16 176 0
h -13 177 0
h -11 177 0
h -13 -11 178 0
h -1 177 0
h -13 -1 178 0
h -11 -1 178 0
h -13 -11 -1 179 0
h -175 180 0
h -176 181 0
h -177 180 0
h -178 181 0
h -179 182 0
h -175 -177 181 0
h -175 -178 182 0
h -175 -179 183 0
h -176 -177 182 0
h -176 -178 183 0
h -176 -179 184 0
h -172 185 0
h -173 186 0
h -174 187 0
h -180 185 0
h -181 186 0
h -182 187 0
h -183 188 0
h -184 189 0
h -172 -180 186 0
h -172 -181 187 0
h -172 -182 188 0
h -172 -183 189 0
h -172 -184 190 0
h -173 -180 187 0
h -173 -181 188 0
h -173 -182 189 0
h -173 -183 190 0
h -173 -184 191 0
h -174 -180 188 0
h -174 -181 189 0
h -174 -182 190 0
h -174 -183 191 0
h -174 -184 192 0
h -171 193 0
h 24 193 0
h -171 24 194 0
h 22 193 0
h -171 22 194 0
h 24 22 194 0
h -171 24 22 195 0
h -193 196 0
h -194 197 0
h -195 198 0
h -186 196 0
h -188 197 0
h -190 198 0
h -192 199 0
h -193 -186 197 0
h -193 -188 198 0
h -193 -190 199 0
h -193 -192 200 0
h -194 -186 198 0
h -194 -188 199 0
h -194 -190 200 0
h -194 -192 201 0
h -195 -186 199 0
h -195 -188 200 0
h -195 -190 201 0
h -195 -192 202 0
h 24 203 0
h 23 203 0
h 24 23 204 0
h -203 205 0
h -204 206 0
h -197 205 0
h -199 206 0
h -201 207 0
h -203 -197 206 0
h -203 -199 207 0
h -203 -201 208 0
h -204 -197 207 0
h -204 -199 208 0
h -208 0
h 209 0
h 20 210 0
h 19 210 0
h 20 19 211 0
h 17 210 0
h 20 17 211 0
h 19 17 211 0
h 20 19 17 212 0
h 13 213 0
h 11 213 0
h 13 11 214 0
h 1 213 0
h 13 1 214 0
h 11 1 214 0
h 13 11 1 215 0
h 16 216 0
h -213 216 0
h -214 217 0
h -215 218 0
h 16 -213 217 0
h 16 -214 218 0
h 16 -215 219 0
h -210 220 0
h -211 221 0
h -212 222 0
h -216 220 0
h -217 221 0
h -218 222 0
h -219 223 0
h -210 -216 221 0
h -210 -217 222 0
h -210 -218 223 0
h -210 -219 224 0
h -211 -216 222 0
h -211 -217 223 0
h -211 -218 224 0
h -211 -219 225 0
h -212 -216 223 0
h -212 -217 224 0
h -212 -218 225 0
h -212 -219 226 0
h -24 227 0
h -22 227 0
h -24 -22 228 0
h -227 229 0
h -228 230 0
h -221 229 0
h -223 230 0
h -225 231 0
h -227 -221 230 0
h -227 -223 231 0
h -227 -225 232 0
h -228 -221 231 0
h -228 -223 232 0
h -232 0
h -24 233 0
h -23 233 0
h -24 -23 234 0
h -234 0
h -233 235 0
h -234 236 0
h -230 235 0
h -232 236 0
h -233 -230 236 0
h -236 0
h 237 0
h -237 238 0
h -19 238 0
h -237 -19 239 0
h -12 240 0
h -11 240 0
h -12 -11 241 0
h -2 240 0
h -12 -2 241 0
h -11 -2 241 0
h -12 -11 -2 242 0
h -238 243 0
h -239 244 0
h -240 243 0
h -241 244 0
h -242 245 0
h -238 -240 244 0
h -238 -241 245 0
h -238 -242 246 0
h -239 -240 245 0
h -239 -241 246 0
h -239 -242 247 0
h 36 248 0
h -244 248 0
h -246 249 0
h 36 -244 249 0
h 36 -246 250 0
h 37 251 0
h -249 251 0
h 37 -249 252 0
h -252 0
h 253 0
h -253 254 0
h 19 254 0
h -253 19 255 0
h 12 256 0
h 11 256 0
h 12 11 257 0
h 2 256 0
h 12 2 257 0
h 11 2 257 0
h 12 11 2 258 0
h -254 259 0
h -255 260 0
h -256 259 0
h -257 260 0
h -258 261 0
h -254 -256 260 0
h -254 -257 261 0
h -254 -258 262 0
h -255 -256 261 0
h -255 -257 262 0
h -255 -258 263 0
h -253 264 0
h -36 264 0
h -253 -36 265 0
h -264 266 0
h -265 267 0
h -260 266 0
h -262 267 0
h -264 -260 267 0
h -264 -262 268 0
h -265 -260 268 0
h -265 -262 269 0
h -269 0
h -37 270 0
h -267 270 0
h -269 271 0
h -37 -267 271 0
h -271 0
h 272 0
h -272 273 0
h -16 273 0
h -272 -16 274 0
h -14 275 0
h -13 275 0
h -14 -13 276 0
h -3 275 0
h -14 -3 276 0
h -13 -3 276 0
h -14 -13 -3 277 0
h -273 278 0
h -274 279 0
h -275 278 0
h -276 279 0
h -277 280 0
h -273 -275 279 0
h -273 -276 280 0
h -273 -277 281 0
h -274 -275 280 0
h -274 -276 281 0
h -274 -277 282 0
h 50 283 0
h -279 283 0
h -281 284 0
h 50 -279 284 0
h 50 -281 285 0
h 51 286 0
h -284 286 0
h 51 -284 287 0
h -287 0
h 288 0
h -288 289 0
h 16 289 0
h -288 16 290 0
h 14 291 0
h 13 291 0
h 14 13 292 0
h 3 291 0
h 14 3 292 0
h 13 3 292 0
h 14 13 3 293 0
h -289 294 0
h -290 295 0
h -291 294 0
h -292 295 0
h -293 296 0
h -289 -291 295 0
h -289 -292 296 0
h -289 -293 297 0
h -290 -291 296 0
h -290 -292 297 0
h -290 -293 298 0
h -288 299 0
h -50 299 0
h -288 -50 300 0
h -299 301 0
h -300 302 0
h -295 301 0
h -297 302 0
h -299 -295 302 0
h -299 -297 303 0
h -300 -295 303 0
h -300 -297 304 0
h -304 0
h -51 305 0
h -302 305 0
h -304 306 0
h -51 -302 306 0
h -306 0
h 307 0
h -307 308 0
h -20 308 0
h -307 -20 309 0
h -19 308 0
h -307 -19 309 0
h -20 -19 309 0
h -307 -20 -19 310 0
h -18 311 0
h -15 311 0
h -18 -15 312 0
h -13 313 0
h -11 313 0
h -13 -11 314 0
h -4 313 0
h -13 -4 314 0
h -11 -4 314 0
h -13 -11 -4 315 0
h -311 316 0
h -312 317 0
h -313 316 0
h -314 317 0
h -315 318 0
h -311 -313 317 0
h -311 -314 318 0
h -311 -315 319 0
h -312 -313 318 0
h -312 -314 319 0
h -312 -315 320 0
h -308 321 0
h -309 322 0
h -310 323 0
h -316 321 0
h -317 322 0
h -318 323 0
h -319 324 0
h -320 325 0
h -308 -316 322 0
h -308 -317 323 0
h -308 -318 324 0
h -308 -319 325 0
h -308 -320 326 0
h -309 -316 323 0
h -309 -317 324 0
h -309 -318 325 0
h -309 -319 326 0
h -309 -320 327 0
h -310 -316 324 0
h -310 -317 325 0
h -310 -318 326 0
h -310 -319 327 0
h -310 -320 328 0
h -307 329 0
h 66 329 0
h -307 66 330 0
h 64 329 0
h -307 64 330 0
h 66 64 330 0
h -307 66 64 331 0
h -329 332 0
h -330 333 0
h -331 334 0
h -322 332 0
h -324 333 0
h -326 334 0
h -328 335 0
h -329 -322 333 0
h -329 -324 334 0
h -329 -326 335 0
h -329 -328 336 0
h -330 -322 334 0
h -330 -324 335 0
h -330 -326 336 0
h -330 -328 337 0
h -331 -322 335 0
h -331 -324 336 0
h -331 -326 337 0
h -331 -328 338 0
h 66 339 0
h 65 339 0
h 66 65 340 0
h -339 341 0
h -340 342 0
h -333 341 0
h -335 342 0
h -337 343 0
h -339 -333 342 0
h -339 -335 343 0
h -339 -337 344 0
h -340 -333 343 0
h -340 -335 344 0
h -344 0
h 345 0
h 20 346 0
h 19 346 0
h 20 19 347 0
h 18 346 0
h 20 18 347 0
h 19 18 347 0
h 20 19 18 348 0
h 13 349 0
h 11 349 0
h 13 11 350 0
h 4 349 0
h 13 4 350 0
h 11 4 350 0
h 13 11 4 351 0
h 15 352 0
h -349 352 0
h -350 353 0
h -351 354 0
h 15 -349 353 0
h 15 -350 354 0
h 15 -351 355 0
h -346 356 0
h -347 357 0
h -348 358 0
h -352 356 0
h -353 357 0
h -354 358 0
h -355 359 0
h -346 -352 357 0
h -346 -353 358 0
h -346 -354 359 0
h -346 -355 360 0
h -347 -352 358 0
h -347 -353 359 0
h -347 -354 360 0
h -347 -355 361 0
h -348 -352 359 0
h -348 -353 360 0
h -348 -354 361 0
h -348 -355 362 0
h -66 363 0
h -64 363 0
h -66 -64 364 0
h -363 365 0
h -364 366 0
h -357 365 0
h -359 366 0
h -361 367 0
h -363 -357 366 0
h -363 -359 367 0
h -363 -361 368 0
h -364 -357 367 0
h -364 -359 368 0
h -368 0
h -66 369 0
h -65 369 0
h -66 -65 370 0
h -370 0
h -369 371 0
h -370 372 0
h -366 371 0
h -368 372 0
h -369 -366 372 0
h -372 0
h 373 0
h -373 374 0
h -18 374 0
h -373 -18 375 0
h -16 374 0
h -373 -16 375 0
h -18 -16 375 0
h -373 -18 -16 376 0
h -14 377 0
h -13 377 0
h -14 -13 378 0
h -12 379 0
h -11 379 0
h -12 -11 380 0
h -5 379 0
h -12 -5 380 0
h -11 -5 380 0
h -12 -11 -5 381 0
h -377 382 0
h -378 383 0
h -379 382 0
h -380 383 0
h -381 384 0
h -377 -379 383 0
h -377 -380 384 0
h -377 -381 385 0
h -378 -379 384 0
h -378 -380 385 0
h -378 -381 386 0
h -374 387 0
h -375 388 0
h -376 389 0
h -382 387 0
h -383 388 0
h -384 389 0
h -385 390 0
h -386 391 0
h -374 -382 388 0
h -374 -383 389 0
h -374 -384 390 0
h -374 -385 391 0
h -374 -386 392 0
h -375 -382 389 0
h -375 -383 390 0
h -375 -384 391 0
h -375 -385 392 0
h -375 -386 393 0
h -376 -382 390 0
h -376 -383 391 0
h -376 -384 392 0
h -376 -385 393 0
h -376 -386 394 0
h -373 395 0
h 80 395 0
h -373 80 396 0
h 78 395 0
h -373 78 396 0
h 80 78 396 0
h -373 80 78 397 0
h -395 398 0
h -396 399 0
h -397 400 0
h -388 398 0
h -390 399 0
h -392 400 0
h -394 401 0
h -395 -388 399 0
h -395 -390 400 0
h -395 -392 401 0
h -395 -394 402 0
h -396 -388 400 0
h -396 -390 401 0
h -396 -392 402 0
h -396 -394 403 0
h -397 -388 401 0
h -397 -390 402 0
h -397 -392 403 0
h -397 -394 404 0
h 80 405 0
h 79 405 0
h 80 79 406 0
h -405 407 0
h -406 408 0
h -399 407 0
h -401 408 0
h -403 409 0
h -405 -399 408 0
h -405 -401 409 0
h -405 -403 410 0
h -406 -399 409 0
h -406 -401 410 0
h -410 0
h 411 0
h 18 412 0
h 16 412 0
h 18 16 413 0
h 14 412 0
h 18 14 413 0
h 16 14 413 0
h 18 16 14 414 0
h 12 415 0
h 11 415 0
h 12 11 416 0
h 5 415 0
h 12 5 416 0
h 11 5 416 0
h 12 11 5 417 0
h 13 418 0
h -415 418 0
h -416 419 0
h -417 420 0
h 13 -415 419 0
h 13 -416 420 0
h 13 -417 421 0
h -412 422 0
h -413 423 0
h -414 424 0
h -418 422 0
h -419 423 0
h -420 424 0
h -421 425 0
h -412 -418 423 0
h -412 -419 424 0
h -412 -420 425 0
h -412 -421 426 0
h -413 -418 424 0
h -413 -419 425 0
h -413 -420 426 0
h -413 -421 427 0
h -414 -418 425 0
h -414 -419 426 0
h -414 -420 427 0
h -414 -421 428 0
h -80 429 0
h -78 429 0
h -80 -78 430 0
h -429 431 0
h -430 432 0
h -423 431 0
h -425 432 0
h -427 433 0
h -429 -423 432 0
h -429 -425 433 0
h -429 -427 434 0
h -430 -423 433 0
h -430 -425 434 0
h -434 0
h -80 435 0
h -79 435 0
h -80 -79 436 0
h -436 0
h -435 437 0
h -436 438 0
h -432 437 0
h -434 438 0
h -435 -432 438 0
h -438 0
h 439 0
h -439 440 0
h -20 440 0
h -439 -20 441 0
h -19 440 0
h -439 -19 441 0
h -20 -19 441 0
h -439 -20 -19 442 0
h -17 443 0
h -16 443 0
h -17 -16 444 0
h -14 445 0
h -11 445 0
h -14 -11 446 0
h -6 445 0
h -14 -6 446 0
h -11 -6 446 0
h -14 -11 -6 447 0
h -443 448 0
h -444 449 0
h -445 448 0
h -446 449 0
h -447 450 0
h -443 -445 449 0
h -443 -446 450 0
h -443 -447 451 0
h -444 -445 450 0
h -444 -446 451 0
h -444 -447 452 0
h -440 453 0
h -441 454 0
h -442 455 0
h -448 453 0
h -449 454 0
h -450 455 0
h -451 456 0
h -452 457 0
h -440 -448 454 0
h -440 -449 455 0
h -440 -450 456 0
h -440 -451 457 0
h -440 -452 458 0
h -441 -448 455 0
h -441 -449 456 0
h -441 -450 457 0
h -441 -451 458 0
h -441 -452 459 0
h -442 -448 456 0
h -442 -449 457 0
h -442 -450 458 0
h -442 -451 459 0
h -442 -452 460 0
h -439 461 0
h 94 461 0
h -439 94 462 0
h 92 461 0
h -439 92 462 0
h 94 92 462 0
h -439 94 92 463 0
h -461 464 0
h -462 465 0
h -463 466 0
h -454 464 0
h -456 465 0
h -458 466 0
h -460 467 0
h -461 -454 465 0
h -461 -456 466 0
h -461 -458 467 0
h -461 -460 468 0
h -462 -454 466 0
h -462 -456 467 0
h -462 -458 468 0
h -462 -460 469 0
h -463 -454 467 0
h -463 -456 468 0
h -463 -458 469 0
h -463 -460 470 0
h 94 471 0
h 93 471 0
h 94 93 472 0
h -471 473 0
h -472 474 0
h -465 473 0
h -467 474 0
h -469 475 0
h -471 -465 474 0
h -471 -467 475 0
h -471 -469 476 0
h -472 -465 475 0
h -472 -467 476 0
h -476 0
h 477 0
h 20 478 0
h 19 478 0
h 20 19 479 0
h 17 478 0
h 20 17 479 0
h 19 17 479 0
h 20 19 17 480 0
h 14 481 0
h 11 481 0
h 14 11 482 0
h 6 481 0
h 14 6 482 0
h 11 6 482 0
h 14 11 6 483 0
h 16 484 0
h -481 484 0
h -482 485 0
h -483 486 0
h 16 -481 485 0
h 16 -482 486 0
h 16 -483 487 0
h -478 488 0
h -479 489 0
h -480 490 0
h -484 488 0
h -485 489 0
h -486 490 0
h -487 491 0
h -478 -484 489 0
h -478 -485 490 0
h -478 -486 491 0
h -478 -487 492 0
h -479 -484 490 0
h -479 -485 491 0
h -479 -486 492 0
h -479 -487 493 0
h -480 -484 491 0
h -480 -485 492 0
h -480 -486 493 0
h -480 -487 494 0
h -94 495 0
h -92 495 0
h -94 -92 496 0
h -495 497 0
h -496 498 0
h -489 497 0
h -491 498 0
h -493 499 0
h -495 -489 498 0
h -495 -491 499 0
h -495 -493 500 0
h -496 -489 499 0
h -496 -491 500 0
h -500 0
h -94 501 0
h -93 501 0
h -94 -93 502 0
h -502 0
h -501 503 0
h -502 504 0
h -498 503 0
h -500 504 0
h -501 -498 504 0
h -504 0
h 505 0
h -505 506 0
h -20 506 0
h -505 -20 507 0
h -19 506 0
h -505 -19 507 0
h -20 -19 507 0
h -505 -20 -19 508 0
h -17 509 0
h -15 509 0
h -17 -15 510 0
h -13 509 0
h -17 -13 510 0
h -15 -13 510 0
h -17 -15 -13 511 0
h -12 512 0
h -11 512 0
h -12 -11 513 0
h -7 512 0
h -12 -7 513 0
h -11 -7 513 0
h -12 -11 -7 514 0
h -509 515 0
h -510 516 0
h -511 517 0
h -512 515 0
h -513 516 0
h -514 517 0
h -509 -512 516 0
h -509 -513 517 0
h -509 -514 518 0
h -510 -512 517 0
h -510 -513 518 0
h -510 -514 519 0
h -511 -512 518 0
h -511 -513 519 0
h -511 -514 520 0
h -506 521 0
h -507 522 0
h -508 523 0
h -515 521 0
h -516 522 0
h -517 523 0
h -518 524 0
h -519 525 0
h -520 526 0
h -506 -515 522 0
h -506 -516 523 0
h -506 -517 524 0
h -506 -518 525 0
h -506 -519 526 0
h -506 -520 527 0
h -507 -515 523 0
h -507 -516 524 0
h -507 -517 525 0
h -507 -518 526 0
h -507 -519 527 0
h -507 -520 528 0
h -508 -515 524 0
h -508 -516 525 0
h -508 -517 526 0
h -508 -518 527 0
h -508 -519 528 0
h -508 -520 529 0
h -505 530 0
h 108 530 0
h -505 108 531 0
h 106 530 0
h -505 106 531 0
h 108 106 531 0
h -505 108 106 532 0
h -530 533 0
h -531 534 0
h -532 535 0
h -522 533 0
h -524 534 0
h -526 535 0
h -528 536 0
h -530 -522 534 0
h -530 -524 535 0
h -530 -526 536 0
h -530 -528 537 0
h -531 -522 535 0
h -531 -524 536 0
h -531 -526 537 0
h -531 -528 538 0
h -532 -522 536 0
h -532 -524 537 0
h -532 -526 538 0
h -532 -528 539 0
h 108 540 0
h 107 540 0
h 108 107 541 0
h -540 542 0
h -541 543 0
h -534 542 0
h -536 543 0
h -538 544 0
h -540 -534 543 0
h -540 -536 544 0
h -540 -538 545 0
h -541 -534 544 0
h -541 -536 545 0
h -541 -538 546 0
h 109 547 0
h -543 547 0
h -545 548 0
h 109 -543 548 0
h 109 -545 549 0
h -549 0
h 550 0
h -550 551 0
h 20 551 0
h -550 20 552 0
h 19 551 0
h -550 19 552 0
h 20 19 552 0
h -550 20 19 553 0
h 17 554 0
h 15 554 0
h 17 15 555 0
h 13 554 0
h 17 13 555 0
h 15 13 555 0
h 17 15 13 556 0
h 12 557 0
h 11 557 0
h 12 11 558 0
h 7 557 0
h 12 7 558 0
h 11 7 558 0
h 12 11 7 559 0
h -554 560 0
h -555 561 0
h -556 562 0
h -557 560 0
h -558 561 0
h -559 562 0
h -554 -557 561 0
h -554 -558 562 0
h -554 -559 563 0
h -555 -557 562 0
h -555 -558 563 0
h -555 -559 564 0
h -556 -557 563 0
h -556 -558 564 0
h -556 -559 565 0
h -551 566 0
h -552 567 0
h -553 568 0
h -560 566 0
h -561 567 0
h -562 568 0
h -563 569 0
h -564 570 0
h -565 571 0
h -551 -560 567 0
h -551 -561 568 0
h -551 -562 569 0
h -551 -563 570 0
h -551 -564 571 0
h -551 -565 572 0
h -552 -560 568 0
h -552 -561 569 0
h -552 -562 570 0
h -552 -563 571 0
h -552 -564 572 0
h -552 -565 573 0
h -553 -560 569 0
h -553 -561 570 0
h -553 -562 571 0
h -553 -563 572 0
h -553 -564 573 0
h -553 -565 574 0
h -550 575 0
h -108 575 0
h -550 -108 576 0
h -106 575 0
h -550 -106 576 0
h -108 -106 576 0
h -550 -108 -106 577 0
h -575 578 0
h -576 579 0
h -577 580 0
h -567 578 0
h -569 579 0
h -571 580 0
h -573 581 0
h -575 -567 579 0
h -575 -569 580 0
h -575 -571 581 0
h -575 -573 582 0
h -576 -567 580 0
h -576 -569 581 0
h -576 -571 582 0
h -576 -573 583 0
h -577 -567 581 0
h -577 -569 582 0
h -577 -571 583 0
h -577 -573 584 0
h -550 585 0
h -108 585 0
h -550 -108 586 0
h -107 585 0
h -550 -107 586 0
h -108 -107 586 0
h -550 -108 -107 587 0
h -585 588 0
h -586 589 0
h -587 590 0
h -579 588 0
h -581 589 0
h -583 590 0
h -585 -579 589 0
h -585 -581 590 0
h -585 -583 591 0
h -586 -579 590 0
h -586 -581 591 0
h -587 -579 591 0
h -591 0
h -109 592 0
h -589 592 0
h -591 593 0
h -109 -589 593 0
h -593 0
h 594 0
h -594 595 0
h -18 595 0
h -594 -18 596 0
h -16 595 0
h -594 -16 596 0
h -18 -16 596 0
h -594 -18 -16 597 0
h -15 598 0
h -14 598 0
h -15 -14 599 0
h -13 600 0
h -11 600 0
h -13 -11 601 0
h -8 600 0
h -13 -8 601 0
h -11 -8 601 0
h -13 -11 -8 602 0
h -598 603 0
h -599 604 0
h -600 603 0
h -601 604 0
h -602 605 0
h -598 -600 604 0
h -598 -601 605 0
h -598 -602 606 0
h -599 -600 605 0
h -599 -601 606 0
h -599 -602 607 0
h -595 608 0
h -596 609 0
h -597 610 0
h -603 608 0
h -604 609 0
h -605 610 0
h -606 611 0
h -607 612 0
h -595 -603 609 0
h -595 -604 610 0
h -595 -605 611 0
h -595 -606 612 0
h -595 -607 613 0
h -596 -603 610 0
h -596 -604 611 0
h -596 -605 612 0
h -596 -606 613 0
h -596 -607 614 0
h -597 -603 611 0
h -597 -604 612 0
h -597 -605 613 0
h -597 -606 614 0
h -597 -607 615 0
h -594 616 0
h 132 616 0
h -594 132 617 0
h 130 616 0
h -594 130 617 0
h 132 130 617 0
h -594 132 130 618 0
h -616 619 0
h -617 620 0
h -618 621 0
h -609 619 0
h -611 620 0
h -613 621 0
h -615 622 0
h -616 -609 620 0
h -616 -611 621 0
h -616 -613 622 0
h -616 -615 623 0
h -617 -609 621 0
h -617 -611 622 0
h -617 -613 623 0
h -617 -615 624 0
h -618 -609 622 0
h -618 -611 623 0
h -618 -613 624 0
h -618 -615 625 0
h 132 626 0
h 131 626 0
h 132 131 627 0
h -626 628 0
h -627 629 0
h -620 628 0
h -622 629 0
h -624 630 0
h -626 -620 629 0
h -626 -622 630 0
h -626 -624 631 0
h -627 -620 630 0
h -627 -622 631 0
h -631 0
h 632 0
h 18 633 0
h 16 633 0
h 18 16 634 0
h 15 633 0
h 18 15 634 0
h 16 15 634 0
h 18 16 15 635 0
h 13 636 0
h 11 636 0
h 13 11 637 0
h 8 636 0
h 13 8 637 0
h 11 8 637 0
h 13 11 8 638 0
h 14 639 0
h -636 639 0
h -637 640 0
h -638 641 0
h 14 -636 640 0
h 14 -637 641 0
h 14 -638 642 0
h -633 643 0
h -634 644 0
h -635 645 0
h -639 643 0
h -640 644 0
h -641 645 0
h -642 646 0
h -633 -639 644 0
h -633 -640 645 0
h -633 -641 646 0
h -633 -642 647 0
h -634 -639 645 0
h -634 -640 646 0
h -634 -641 647 0
h -634 -642 648 0
h -635 -639 646 0
h -635 -640 647 0
h -635 -641 648 0
h -635 -642 649 0
h -132 650 0
h -130 650 0
h -132 -130 651 0
h -650 652 0
h -651 653 0
h -644 652 0
h -646 653 0
h -648 654 0
h -650 -644 653 0
h -650 -646 654 0
h -650 -648 655 0
h -651 -644 654 0
h -651 -646 655 0
h -655 0
h -132 656 0
h -131 656 0
h -132 -131 657 0
h -657 0
h -656 658 0
h -657 659 0
h -653 658 0
h -655 659 0
h -656 -653 659 0
h -659 0
h 660 0
h -660 661 0
h -18 661 0
h -660 -18 662 0
h -16 661 0
h -660 -16 662 0
h -18 -16 662 0
h -660 -18 -16 663 0
h -13 664 0
h -11 664 0
h -13 -11 665 0
h -9 664 0
h -13 -9 665 0
h -11 -9 665 0
h -13 -11 -9 666 0
h -661 667 0
h -662 668 0
h -663 669 0
h -664 667 0
h -665 668 0
h -666 669 0
h -661 -664 668 0
h -661 -665 669 0
h -661 -666 670 0
h -662 -664 669 0
h -662 -665 670 0
h -662 -666 671 0
h -663 -664 670 0
h -663 -665 671 0
h -663 -666 672 0
h 144 673 0
h -668 673 0
h -670 674 0
h -672 675 0
h 144 -668 674 0
h 144 -670 675 0
h 144 -672 676 0
h -676 0
h 145 677 0
h -674 677 0
h -676 678 0
h 145 -674 678 0
h -678 0
h 679 0
h 18 680 0
h 16 680 0
h 18 16 681 0
h 13 682 0
h 11 682 0
h 13 11 683 0
h 9 682 0
h 13 9 683 0
h 11 9 683 0
h 13 11 9 684 0
h -680 685 0
h -681 686 0
h -682 685 0
h -683 686 0
h -684 687 0
h -680 -682 686 0
h -680 -683 687 0
h -680 -684 688 0
h -681 -682 687 0
h -681 -683 688 0
h -681 -684 689 0
h -679 690 0
h -144 690 0
h -679 -144 691 0
h -690 692 0
h -691 693 0
h -686 692 0
h -688 693 0
h -690 -686 693 0
h -690 -688 694 0
h -691 -686 694 0
h -691 -688 695 0
h -695 0
h -145 696 0
h -693 696 0
h -695 697 0
h -145 -693 697 0
h -697 0
h 698 0
h -698 699 0
h -18 699 0
h -698 -18 700 0
h -15 701 0
h -12 701 0
h -15 -12 702 0
h -10 701 0
h -15 -10 702 0
h -12 -10 702 0
h -15 -12 -10 703 0
h -699 704 0
h -700 705 0
h -701 704 0
h -702 705 0
h -703 706 0
h -699 -701 705 0
h -699 -702 706 0
h -699 -703 707 0
h -700 -701 706 0
h -700 -702 707 0
h -700 -703 708 0
h 158 709 0
h -705 709 0
h -707 710 0
h 158 -705 710 0
h 158 -707 711 0
h 159 712 0
h -710 712 0
h 159 -710 713 0
h -713 0
h 714 0
h -714 715 0
h 18 715 0
h -714 18 716 0
h 15 717 0
h 12 717 0
h 15 12 718 0
h 10 717 0
h 15 10 718 0
h 12 10 718 0
h 15 12 10 719 0
h -715 720 0
h -716 721 0
h -717 720 0
h -718 721 0
h -719 722 0
h -715 -717 721 0
h -715 -718 722 0
h -715 -719 723 0
h -716 -717 722 0
h -716 -718 723 0
h -716 -719 724 0
h -714 725 0
h -158 725 0
h -714 -158 726 0
h -725 727 0
h -726 728 0
h -721 727 0
h -723 728 0
h -725 -721 728 0
h -725 -723 729 0
h -726 -721 729 0
h -726 -723 730 0
h -730 0
h -159 731 0
h -728 731 0
h -730 732 0
h -159 -728 732 0
h -732 0
h 1 2 3 4 5 6 7 8 9 10 11 12 13 14 15 16 17 18 19 20 0
